NAME: CVRP_BENCHMARK
TYPE: CVRP
COMMENT: none
DIMENSION: 76
NUM_DAYS: 5
CAPACITY: 140
DISTANCE: 160
EDGE_WEIGHT_TYPE: FUNCTION
EDGE_WEIGHT_FORMAT: EUC_2D
NODE_COORD_TYPE: TWOD_COORDS
NODE_COORD_SECTION
1	-18.000 -18.000
2	-4.000 -14.000
3	-19.000 5.000
4	5.000 -5.000
5	15.000 -20.000
6	-7.000 -6.000
7	10.000 10.000
8	15.000 5.000
9	-14.000 19.000
10	0.000 26.000
11	15.000 25.000
12	-5.000 11.000
13	22.000 -5.000
14	22.000 17.000
15	22.000 -16.000
16	-19.000 -4.000
17	-7.000 4.000
18	-31.000 16.000
19	22.000 8.000
20	26.000 -26.000
21	4.000 -27.000
22	-14.000 -27.000
23	-29.000 -12.000
24	-33.000 3.000
25	-23.000 24.000
26	1.000 6.000
27	15.000 -6.000
28	-5.000 -24.000
29	12.000 -14.000
30	3.000 -14.000
31	-9.000 36.000
32	-18.000 13.000
33	-14.000 -11.000
34	10.000 0.000
35	15.000 10.000
36	14.000 -30.000
37	20.000 -25.000
38	7.000 26.000
39	-10.000 20.000
40	-10.000 10.000
41	-28.000 -23.000
42	-25.000 -26.000
43	-24.000 -21.000
44	-19.000 8.000
45	10.000 -10.000
46	11.000 2.000
47	10.000 -25.000
48	8.000 -19.000
49	-28.000 -2.000
50	-25.000 16.000
51	-11.000 -1.000
52	14.000 -2.000
53	15.000 17.000
54	27.000 1.000
55	-30.000 30.000
56	-34.000 -15.000
57	25.000 -13.000
58	0.000 20.000
59	30.000 24.000
60	24.000 -36.000
61	-4.000 -34.000
62	-10.000 -20.000
63	-20.000 -10.000
64	-25.000 -35.000
65	10.000 30.000
66	17.000 32.000
67	5.000 2.000
68	-2.000 -7.000
69	10.000 -36.000
70	26.000 -32.000
71	19.000 -35.000
72	-5.000 20.000
73	-13.000 -16.000
74	0.000 -20.000
75	0.000 -3.000
DEMAND_SECTION
1 18 18 18 18 18
2 -1 26 26 26 26
3 11 11 11 11 11
4 30 30 30 30 30
5 21 21 -1 21 -1
6 19 -1 19 19 19
7 15 15 15 15 -1
8 16 16 16 -1 -1
9 -1 -1 -1 29 29
10 26 26 26 26 26
11 37 -1 -1 37 -1
12 16 -1 16 16 16
13 12 12 12 12 -1
14 -1 31 -1 31 31
15 8 8 8 8 8
16 -1 19 19 19 19
17 20 20 20 20 -1
18 13 -1 -1 -1 13
19 -1 15 -1 15 -1
20 -1 22 -1 22 22
21 28 -1 28 28 28
22 12 12 12 12 -1
23 6 -1 6 6 -1
24 -1 27 -1 -1 27
25 -1 14 14 14 14
26 18 18 -1 18 18
27 17 17 17 17 17
28 29 -1 29 29 -1
29 -1 13 13 13 -1
30 22 22 22 22 -1
31 -1 25 25 25 25
32 28 28 28 -1 28
33 -1 -1 27 27 27
34 19 19 19 19 19
35 10 10 -1 10 10
36 -1 12 12 12 12
37 -1 14 14 14 14
38 -1 24 24 24 -1
39 -1 16 -1 16 16
40 33 33 33 33 33
41 15 15 -1 15 -1
42 11 11 11 -1 11
43 18 18 18 -1 -1
44 -1 17 17 -1 17
45 21 21 -1 21 -1
46 -1 27 27 27 27
47 -1 19 19 19 19
48 -1 -1 20 20 20
49 5 5 -1 5 -1
50 22 -1 22 22 -1
51 12 12 12 -1 12
52 19 19 19 19 19
53 22 22 -1 22 22
54 16 -1 -1 16 16
55 7 7 7 7 7
56 26 26 26 26 26
57 14 14 14 -1 -1
58 21 21 21 -1 21
59 24 24 -1 24 -1
60 -1 -1 13 13 13
61 15 15 15 15 15
62 -1 -1 18 18 -1
63 11 11 11 -1 11
64 28 28 28 -1 -1
65 9 9 -1 9 9
66 37 37 -1 37 37
67 30 -1 30 30 -1
68 10 10 10 -1 10
69 8 8 8 -1 -1
70 11 11 11 11 11
71 3 3 3 -1 -1
72 1 1 -1 1 1
73 6 6 6 6 6
74 10 10 -1 -1 -1
75 20 20 20 20 20
SVC_TIME_SECTION
1	10.000000	10.000000	10.000000	10.000000	10.000000	
2	0.000000	10.000000	10.000000	10.000000	10.000000	
3	10.000000	10.000000	10.000000	10.000000	10.000000	
4	10.000000	10.000000	10.000000	10.000000	10.000000	
5	10.000000	10.000000	0.000000	10.000000	0.000000	
6	10.000000	0.000000	10.000000	10.000000	10.000000	
7	10.000000	10.000000	10.000000	10.000000	0.000000	
8	10.000000	10.000000	10.000000	0.000000	0.000000	
9	0.000000	0.000000	0.000000	10.000000	10.000000	
10	10.000000	10.000000	10.000000	10.000000	10.000000	
11	10.000000	0.000000	0.000000	10.000000	0.000000	
12	10.000000	0.000000	10.000000	10.000000	10.000000	
13	10.000000	10.000000	10.000000	10.000000	0.000000	
14	0.000000	10.000000	0.000000	10.000000	10.000000	
15	10.000000	10.000000	10.000000	10.000000	10.000000	
16	0.000000	10.000000	10.000000	10.000000	10.000000	
17	10.000000	10.000000	10.000000	10.000000	0.000000	
18	10.000000	0.000000	0.000000	0.000000	10.000000	
19	0.000000	10.000000	0.000000	10.000000	0.000000	
20	0.000000	10.000000	0.000000	10.000000	10.000000	
21	10.000000	0.000000	10.000000	10.000000	10.000000	
22	10.000000	10.000000	10.000000	10.000000	0.000000	
23	10.000000	0.000000	10.000000	10.000000	0.000000	
24	0.000000	10.000000	0.000000	0.000000	10.000000	
25	0.000000	10.000000	10.000000	10.000000	10.000000	
26	10.000000	10.000000	0.000000	10.000000	10.000000	
27	10.000000	10.000000	10.000000	10.000000	10.000000	
28	10.000000	0.000000	10.000000	10.000000	0.000000	
29	0.000000	10.000000	10.000000	10.000000	0.000000	
30	10.000000	10.000000	10.000000	10.000000	0.000000	
31	0.000000	10.000000	10.000000	10.000000	10.000000	
32	10.000000	10.000000	10.000000	0.000000	10.000000	
33	0.000000	0.000000	10.000000	10.000000	10.000000	
34	10.000000	10.000000	10.000000	10.000000	10.000000	
35	10.000000	10.000000	0.000000	10.000000	10.000000	
36	0.000000	10.000000	10.000000	10.000000	10.000000	
37	0.000000	10.000000	10.000000	10.000000	10.000000	
38	0.000000	10.000000	10.000000	10.000000	0.000000	
39	0.000000	10.000000	0.000000	10.000000	10.000000	
40	10.000000	10.000000	10.000000	10.000000	10.000000	
41	10.000000	10.000000	0.000000	10.000000	0.000000	
42	10.000000	10.000000	10.000000	0.000000	10.000000	
43	10.000000	10.000000	10.000000	0.000000	0.000000	
44	0.000000	10.000000	10.000000	0.000000	10.000000	
45	10.000000	10.000000	0.000000	10.000000	0.000000	
46	0.000000	10.000000	10.000000	10.000000	10.000000	
47	0.000000	10.000000	10.000000	10.000000	10.000000	
48	0.000000	0.000000	10.000000	10.000000	10.000000	
49	10.000000	10.000000	0.000000	10.000000	0.000000	
50	10.000000	0.000000	10.000000	10.000000	0.000000	
51	10.000000	10.000000	10.000000	0.000000	10.000000	
52	10.000000	10.000000	10.000000	10.000000	10.000000	
53	10.000000	10.000000	0.000000	10.000000	10.000000	
54	10.000000	0.000000	0.000000	10.000000	10.000000	
55	10.000000	10.000000	10.000000	10.000000	10.000000	
56	10.000000	10.000000	10.000000	10.000000	10.000000	
57	10.000000	10.000000	10.000000	0.000000	0.000000	
58	10.000000	10.000000	10.000000	0.000000	10.000000	
59	10.000000	10.000000	0.000000	10.000000	0.000000	
60	0.000000	0.000000	10.000000	10.000000	10.000000	
61	10.000000	10.000000	10.000000	10.000000	10.000000	
62	0.000000	0.000000	10.000000	10.000000	0.000000	
63	10.000000	10.000000	10.000000	0.000000	10.000000	
64	10.000000	10.000000	10.000000	0.000000	0.000000	
65	10.000000	10.000000	0.000000	10.000000	10.000000	
66	10.000000	10.000000	0.000000	10.000000	10.000000	
67	10.000000	0.000000	10.000000	10.000000	0.000000	
68	10.000000	10.000000	10.000000	0.000000	10.000000	
69	10.000000	10.000000	10.000000	0.000000	0.000000	
70	10.000000	10.000000	10.000000	10.000000	10.000000	
71	10.000000	10.000000	10.000000	0.000000	0.000000	
72	10.000000	10.000000	0.000000	10.000000	10.000000	
73	10.000000	10.000000	10.000000	10.000000	10.000000	
74	10.000000	10.000000	0.000000	0.000000	0.000000	
75	10.000000	10.000000	10.000000	10.000000	10.000000	
DEPOT_SECTION
0.0000 0.00000
-1
EOF

